NAME LOTFI
ROWS
 N  OBJ
 E  2       
 E  3       
 E  4       
 E  5       
 E  6       
 E  7       
 E  8       
 E  9       
 E  10      
 E  11      
 E  12      
 E  13      
 E  14      
 E  15      
 E  16      
 E  17      
 E  18      
 E  19      
 E  20      
 E  21      
 E  22      
 E  23      
 E  24      
 E  25      
 E  26      
 E  27      
 E  28      
 E  29      
 E  30      
 E  31      
 E  32      
 E  33      
 E  34      
 E  35      
 E  36      
 E  37      
 E  38      
 E  39      
 E  40      
 E  41      
 E  42      
 E  43      
 E  44      
 E  45      
 E  46      
 E  47      
 E  48      
 E  49      
 E  50      
 E  51      
 E  52      
 E  53      
 E  54      
 E  55      
 E  56      
 E  57      
 E  58      
 E  59      
 E  60      
 E  61      
 E  62      
 E  63      
 E  64      
 E  65      
 E  66      
 E  67      
 E  68      
 E  69      
 E  70      
 E  71      
 E  72      
 E  73      
 E  74      
 E  75      
 E  76      
 E  77      
 E  78      
 E  79      
 G  80      
 G  81      
 G  82      
 G  83      
 G  84      
 G  85      
 G  86      
 G  87      
 G  88      
 G  89      
 G  90      
 G  91      
 G  92      
 G  93      
 G  94      
 G  95      
 L  96      
 L  97      
 L  98      
 L  99      
 L  100     
 L  101     
 L  102     
 L  103     
 L  104     
 L  105     
 L  106     
 L  107     
 L  108     
 L  109     
 L  110     
 L  111     
 L  112     
 L  113     
 L  114     
 L  115     
 L  116     
 L  117     
 L  118     
 L  119     
 L  120     
 L  121     
 L  122     
 L  123     
 L  124     
 L  125     
 L  126     
 L  127     
 L  128     
 L  129     
 L  130     
 L  131     
 L  132     
 L  133     
 L  134     
 L  135     
 L  136     
 L  137     
 E  138     
 E  139     
 E  140     
 E  141     
 E  142     
 E  143     
 E  144     
 E  145     
 E  146     
 E  147     
 E  148     
 E  149     
 E  150     
 E  151     
 E  152     
 E  153     
 E  154     
COLUMNS
    ZP1       OBJ       -1
    ZP1       142       100
    ZM1       OBJ       1
    ZM1       142       -100
    Z2        OBJ       1
    Z2        144       1
    Z3        OBJ       1
    Z3        146       1
    Z4        OBJ       1
    Z4        148       1
    Z5        OBJ       1
    Z5        150       1
    Z6        OBJ       1
    Z6        152       1
    Z7        OBJ       1
    Z7        154       1
    X1111     2         1
    X1111     56        1
    X1111     138       -135
    X1121     2         1
    X1121     62        1
    X1121     138       -135
    X1121     143       -1
    X1131     2         1
    X1131     68        1
    X1131     138       -135
    X1131     143       -1
    SB11      2         1
    SB11      145       -1
    X2111     3         1
    X2111     56        1
    X2111     138       -90
    X2111     151       -1
    X2211     3         1
    X2211     57        1
    X2211     138       -90
    X2121     3         1
    X2121     62        1
    X2121     138       -90
    X2121     143       -1
    X2121     151       -1
    X2221     3         1
    X2221     63        1
    X2221     138       -90
    X2221     143       -1
    X2131     3         1
    X2131     68        1
    X2131     138       -90
    X2131     143       -1
    X2131     151       -1
    X2231     3         1
    X2231     69        1
    X2231     138       -90
    X2231     143       -1
    SB12      3         1
    SB12      145       -1
    X3211     4         1
    X3211     57        1
    X3211     138       -66
    X3211     151       -1
    X3311     4         1
    X3311     58        1
    X3311     138       -66
    X3221     4         1
    X3221     63        1
    X3221     138       -66
    X3221     143       -1
    X3221     151       -1
    X3321     4         1
    X3321     64        1
    X3321     138       -66
    X3321     143       -1
    X3231     4         1
    X3231     69        1
    X3231     138       -66
    X3231     143       -1
    X3231     151       -1
    X3331     4         1
    X3331     70        1
    X3331     138       -66
    X3331     143       -1
    SB13      4         1
    SB13      145       -1
    X4311     5         1
    X4311     58        1
    X4311     138       -48
    X4311     151       -1
    X4411     5         1
    X4411     59        1
    X4411     138       -48
    X4321     5         1
    X4321     64        1
    X4321     138       -48
    X4321     143       -1
    X4321     151       -1
    X4421     5         1
    X4421     65        1
    X4421     138       -48
    X4421     143       -1
    X4331     5         1
    X4331     70        1
    X4331     138       -48
    X4331     143       -1
    X4331     151       -1
    X4431     5         1
    X4431     71        1
    X4431     138       -48
    X4431     143       -1
    SB14      5         1
    SB14      145       -1
    X5411     6         1
    X5411     59        1
    X5411     138       -36
    X5411     151       -1
    X5511     6         1
    X5511     60        1
    X5511     138       -36
    X5421     6         1
    X5421     65        1
    X5421     138       -36
    X5421     143       -1
    X5421     151       -1
    X5521     6         1
    X5521     66        1
    X5521     138       -36
    X5521     143       -1
    X5431     6         1
    X5431     71        1
    X5431     138       -36
    X5431     143       -1
    X5431     151       -1
    X5531     6         1
    X5531     72        1
    X5531     138       -36
    X5531     143       -1
    SB15      6         1
    SB15      145       -1
    X6511     7         1
    X6511     60        1
    X6511     138       -30
    X6511     151       -1
    X6611     7         1
    X6611     61        1
    X6611     138       -30
    X6521     7         1
    X6521     66        1
    X6521     138       -30
    X6521     143       -1
    X6521     151       -1
    X6621     7         1
    X6621     67        1
    X6621     138       -30
    X6621     143       -1
    X6531     7         1
    X6531     72        1
    X6531     138       -30
    X6531     143       -1
    X6531     151       -1
    X6631     7         1
    X6631     73        1
    X6631     138       -30
    X6631     143       -1
    SB16      7         1
    SB16      145       -1
    X1112     8         1
    X1112     56        1
    X1112     120       1
    X1112     138       -135
    X1122     8         1
    X1122     62        1
    X1122     138       -135
    X1132     8         1
    X1132     68        1
    X1132     138       -135
    X1132     143       -1
    X1142     8         1
    X1142     74        1
    X1142     138       -135
    X1142     143       -1
    SB21      8         1
    SB21      145       -1
    X2112     9         1
    X2112     56        1
    X2112     121       1
    X2112     138       -90
    X2112     151       -1
    X2212     9         1
    X2212     57        1
    X2212     121       1
    X2212     138       -90
    X2122     9         1
    X2122     62        1
    X2122     138       -90
    X2122     151       -1
    X2222     9         1
    X2222     63        1
    X2222     138       -90
    X2132     9         1
    X2132     68        1
    X2132     138       -90
    X2132     143       -1
    X2132     151       -1
    X2232     9         1
    X2232     69        1
    X2232     138       -90
    X2232     143       -1
    X2142     9         1
    X2142     74        1
    X2142     138       -90
    X2142     143       -1
    X2142     151       -1
    X2242     9         1
    X2242     75        1
    X2242     138       -90
    X2242     143       -1
    SB22      9         1
    SB22      145       -1
    X3212     10        1
    X3212     57        1
    X3212     122       1
    X3212     138       -66
    X3212     151       -1
    X3312     10        1
    X3312     58        1
    X3312     122       1
    X3312     138       -66
    X3222     10        1
    X3222     63        1
    X3222     138       -66
    X3222     151       -1
    X3322     10        1
    X3322     64        1
    X3322     138       -66
    X3232     10        1
    X3232     69        1
    X3232     138       -66
    X3232     143       -1
    X3232     151       -1
    X3332     10        1
    X3332     70        1
    X3332     138       -66
    X3332     143       -1
    X3242     10        1
    X3242     75        1
    X3242     138       -66
    X3242     143       -1
    X3242     151       -1
    X3342     10        1
    X3342     76        1
    X3342     138       -66
    X3342     143       -1
    SB23      10        1
    SB23      145       -1
    X4312     11        1
    X4312     58        1
    X4312     123       1
    X4312     138       -48
    X4312     151       -1
    X4412     11        1
    X4412     59        1
    X4412     123       1
    X4412     138       -48
    X4322     11        1
    X4322     64        1
    X4322     138       -48
    X4322     151       -1
    X4422     11        1
    X4422     65        1
    X4422     138       -48
    X4332     11        1
    X4332     70        1
    X4332     138       -48
    X4332     143       -1
    X4332     151       -1
    X4432     11        1
    X4432     71        1
    X4432     138       -48
    X4432     143       -1
    X4342     11        1
    X4342     76        1
    X4342     138       -48
    X4342     143       -1
    X4342     151       -1
    X4442     11        1
    X4442     77        1
    X4442     138       -48
    X4442     143       -1
    SB24      11        1
    SB24      145       -1
    X5412     12        1
    X5412     59        1
    X5412     124       1
    X5412     138       -36
    X5412     151       -1
    X5512     12        1
    X5512     60        1
    X5512     124       1
    X5512     138       -36
    X5422     12        1
    X5422     65        1
    X5422     138       -36
    X5422     151       -1
    X5522     12        1
    X5522     66        1
    X5522     138       -36
    X5432     12        1
    X5432     71        1
    X5432     138       -36
    X5432     143       -1
    X5432     151       -1
    X5532     12        1
    X5532     72        1
    X5532     138       -36
    X5532     143       -1
    X5442     12        1
    X5442     77        1
    X5442     138       -36
    X5442     143       -1
    X5442     151       -1
    X5542     12        1
    X5542     78        1
    X5542     138       -36
    X5542     143       -1
    SB25      12        1
    SB25      145       -1
    X6512     13        1
    X6512     60        1
    X6512     125       1
    X6512     138       -30
    X6512     151       -1
    X6612     13        1
    X6612     61        1
    X6612     125       1
    X6612     138       -30
    X6522     13        1
    X6522     66        1
    X6522     138       -30
    X6522     151       -1
    X6622     13        1
    X6622     67        1
    X6622     138       -30
    X6532     13        1
    X6532     72        1
    X6532     138       -30
    X6532     143       -1
    X6532     151       -1
    X6632     13        1
    X6632     73        1
    X6632     138       -30
    X6632     143       -1
    X6542     13        1
    X6542     78        1
    X6542     138       -30
    X6542     143       -1
    X6542     151       -1
    X6642     13        1
    X6642     79        1
    X6642     138       -30
    X6642     143       -1
    SB26      13        1
    SB26      145       -1
    X1123     14        1
    X1123     62        1
    X1123     126       1
    X1123     138       -135
    X1133     14        1
    X1133     68        1
    X1133     138       -135
    X1143     14        1
    X1143     74        1
    X1143     138       -135
    X1143     143       -1
    SB31      14        1
    SB31      145       -1
    X2123     15        1
    X2123     62        1
    X2123     127       1
    X2123     138       -90
    X2123     151       -1
    X2223     15        1
    X2223     63        1
    X2223     127       1
    X2223     138       -90
    X2133     15        1
    X2133     68        1
    X2133     138       -90
    X2133     151       -1
    X2233     15        1
    X2233     69        1
    X2233     138       -90
    X2143     15        1
    X2143     74        1
    X2143     138       -90
    X2143     143       -1
    X2143     151       -1
    X2243     15        1
    X2243     75        1
    X2243     138       -90
    X2243     143       -1
    SB32      15        1
    SB32      145       -1
    X3223     16        1
    X3223     63        1
    X3223     128       1
    X3223     138       -66
    X3223     151       -1
    X3323     16        1
    X3323     64        1
    X3323     128       1
    X3323     138       -66
    X3233     16        1
    X3233     69        1
    X3233     138       -66
    X3233     151       -1
    X3333     16        1
    X3333     70        1
    X3333     138       -66
    X3243     16        1
    X3243     75        1
    X3243     138       -66
    X3243     143       -1
    X3243     151       -1
    X3343     16        1
    X3343     76        1
    X3343     138       -66
    X3343     143       -1
    SB33      16        1
    SB33      145       -1
    X4323     17        1
    X4323     64        1
    X4323     129       1
    X4323     138       -48
    X4323     151       -1
    X4423     17        1
    X4423     65        1
    X4423     129       1
    X4423     138       -48
    X4333     17        1
    X4333     70        1
    X4333     138       -48
    X4333     151       -1
    X4433     17        1
    X4433     71        1
    X4433     138       -48
    X4343     17        1
    X4343     76        1
    X4343     138       -48
    X4343     143       -1
    X4343     151       -1
    X4443     17        1
    X4443     77        1
    X4443     138       -48
    X4443     143       -1
    SB34      17        1
    SB34      145       -1
    X5423     18        1
    X5423     65        1
    X5423     130       1
    X5423     138       -36
    X5423     151       -1
    X5523     18        1
    X5523     66        1
    X5523     130       1
    X5523     138       -36
    X5433     18        1
    X5433     71        1
    X5433     138       -36
    X5433     151       -1
    X5533     18        1
    X5533     72        1
    X5533     138       -36
    X5443     18        1
    X5443     77        1
    X5443     138       -36
    X5443     143       -1
    X5443     151       -1
    X5543     18        1
    X5543     78        1
    X5543     138       -36
    X5543     143       -1
    SB35      18        1
    SB35      145       -1
    X6523     19        1
    X6523     66        1
    X6523     131       1
    X6523     138       -30
    X6523     151       -1
    X6623     19        1
    X6623     67        1
    X6623     131       1
    X6623     138       -30
    X6533     19        1
    X6533     72        1
    X6533     138       -30
    X6533     151       -1
    X6633     19        1
    X6633     73        1
    X6633     138       -30
    X6543     19        1
    X6543     78        1
    X6543     138       -30
    X6543     143       -1
    X6543     151       -1
    X6643     19        1
    X6643     79        1
    X6643     138       -30
    X6643     143       -1
    SB36      19        1
    SB36      145       -1
    X1134     20        1
    X1134     68        1
    X1134     132       1
    X1134     138       -135
    X1144     20        1
    X1144     74        1
    X1144     138       -135
    SB41      20        1
    SB41      145       -1
    X2134     21        1
    X2134     68        1
    X2134     133       1
    X2134     138       -90
    X2134     151       -1
    X2234     21        1
    X2234     69        1
    X2234     133       1
    X2234     138       -90
    X2144     21        1
    X2144     74        1
    X2144     138       -90
    X2144     151       -1
    X2244     21        1
    X2244     75        1
    X2244     138       -90
    SB42      21        1
    SB42      145       -1
    X3234     22        1
    X3234     69        1
    X3234     134       1
    X3234     138       -66
    X3234     151       -1
    X3334     22        1
    X3334     70        1
    X3334     134       1
    X3334     138       -66
    X3244     22        1
    X3244     75        1
    X3244     138       -66
    X3244     151       -1
    X3344     22        1
    X3344     76        1
    X3344     138       -66
    SB43      22        1
    SB43      145       -1
    X4334     23        1
    X4334     70        1
    X4334     135       1
    X4334     138       -48
    X4334     151       -1
    X4434     23        1
    X4434     71        1
    X4434     135       1
    X4434     138       -48
    X4344     23        1
    X4344     76        1
    X4344     138       -48
    X4344     151       -1
    X4444     23        1
    X4444     77        1
    X4444     138       -48
    SB44      23        1
    SB44      145       -1
    X5434     24        1
    X5434     71        1
    X5434     136       1
    X5434     138       -36
    X5434     151       -1
    X5534     24        1
    X5534     72        1
    X5534     136       1
    X5534     138       -36
    X5444     24        1
    X5444     77        1
    X5444     138       -36
    X5444     151       -1
    X5544     24        1
    X5544     78        1
    X5544     138       -36
    SB45      24        1
    SB45      145       -1
    X6534     25        1
    X6534     72        1
    X6534     137       1
    X6534     138       -30
    X6534     151       -1
    X6634     25        1
    X6634     73        1
    X6634     137       1
    X6634     138       -30
    X6544     25        1
    X6544     78        1
    X6544     138       -30
    X6544     151       -1
    X6644     25        1
    X6644     79        1
    X6644     138       -30
    SB46      25        1
    SB46      145       -1
    E11       26        1
    E11       32        -1
    E11       50        -10
    E11       56        -210
    E11       96        -100
    E11       139       -37.5
    E12       27        1
    E12       33        -1
    E12       51        -10
    E12       57        -235
    E12       80        1
    E12       97        -112.5
    E12       139       -25.5
    E13       28        1
    E13       34        -1
    E13       52        -18.75
    E13       58        -368.75
    E13       80        -0.0192
    E13       84        1
    E13       98        -70
    E13       139       -12
    AP13      28        -1
    AP13      141       -20
    AP13      147       -1
    AM13      28        1
    AM13      141       -60
    AM13      149       -1
    E14       29        1
    E14       35        -1
    E14       53        -25
    E14       59        -475
    E14       80        -0.0192
    E14       84        -0.08329999
    E14       88        1
    E14       99        -90
    E14       139       -8.09999943
    AP14      29        -1
    AP14      141       -10
    AP14      147       -1
    AM14      29        1
    AM14      141       -30
    AM14      149       -1
    E15       30        1
    E15       36        -1
    E15       54        -20
    E15       60        -470
    E15       80        -0.0192
    E15       84        -0.08329999
    E15       88        -0.33329999
    E15       92        1
    E15       100       -90
    E15       139       -6.59999943
    AP15      30        -1
    AP15      141       -5
    AP15      147       -1
    AM15      30        1
    AM15      141       -15
    AM15      149       -1
    E16       31        1
    E16       37        -1
    E16       55        -20
    E16       61        -470
    E16       80        -0.0192
    E16       84        -0.08329999
    E16       88        -0.33329999
    E16       92        -0.5
    E16       101       -45
    E16       139       -5.39999962
    AP16      31        -1
    AP16      141       -2
    AP16      147       -1
    AM16      31        1
    AM16      141       -6
    AM16      149       -1
    E21       32        1
    E21       38        -1
    E21       50        -10
    E21       62        -210
    E21       102       -100
    E21       139       -37.5
    E22       33        1
    E22       39        -1
    E22       51        -10
    E22       63        -235
    E22       81        1
    E22       103       -112.5
    E22       139       -25.5
    E23       34        1
    E23       40        -1
    E23       52        -18.75
    E23       64        -368.75
    E23       81        -0.0192
    E23       85        1
    E23       104       -70
    E23       139       -12
    AP23      34        -1
    AP23      141       -20
    AP23      147       -1
    AM23      34        1
    AM23      141       -60
    AM23      149       -1
    E24       35        1
    E24       41        -1
    E24       53        -25
    E24       65        -475
    E24       81        -0.0192
    E24       85        -0.08329999
    E24       89        1
    E24       105       -90
    E24       139       -8.09999943
    AP24      35        -1
    AP24      141       -10
    AP24      147       -1
    AM24      35        1
    AM24      141       -30
    AM24      149       -1
    E25       36        1
    E25       42        -1
    E25       54        -20
    E25       66        -470
    E25       81        -0.0192
    E25       85        -0.08329999
    E25       89        -0.33329999
    E25       93        1
    E25       106       -90
    E25       139       -6.59999943
    AP25      36        -1
    AP25      141       -5
    AP25      147       -1
    AM25      36        1
    AM25      141       -15
    AM25      149       -1
    E26       37        1
    E26       43        -1
    E26       55        -20
    E26       67        -470
    E26       81        -0.0192
    E26       85        -0.08329999
    E26       89        -0.33329999
    E26       93        -0.5
    E26       107       -45
    E26       139       -5.39999962
    AP26      37        -1
    AP26      141       -2
    AP26      147       -1
    AM26      37        1
    AM26      141       -6
    AM26      149       -1
    E31       38        1
    E31       44        -1
    E31       50        -10
    E31       68        -210
    E31       108       -100
    E31       139       -37.5
    E32       39        1
    E32       45        -1
    E32       51        -10
    E32       69        -235
    E32       82        1
    E32       109       -112.5
    E32       139       -25.5
    E33       40        1
    E33       46        -1
    E33       52        -18.75
    E33       70        -368.75
    E33       82        -0.0192
    E33       86        1
    E33       110       -70
    E33       139       -12
    AP33      40        -1
    AP33      141       -20
    AP33      147       -1
    AM33      40        1
    AM33      141       -60
    AM33      149       -1
    E34       41        1
    E34       47        -1
    E34       53        -25
    E34       71        -475
    E34       82        -0.0192
    E34       86        -0.08329999
    E34       90        1
    E34       111       -90
    E34       139       -8.09999943
    AP34      41        -1
    AP34      141       -10
    AP34      147       -1
    AM34      41        1
    AM34      141       -30
    AM34      149       -1
    E35       42        1
    E35       48        -1
    E35       54        -20
    E35       72        -470
    E35       82        -0.0192
    E35       86        -0.08329999
    E35       90        -0.33329999
    E35       94        1
    E35       112       -90
    E35       139       -6.59999943
    AP35      42        -1
    AP35      141       -5
    AP35      147       -1
    AM35      42        1
    AM35      141       -15
    AM35      149       -1
    E36       43        1
    E36       49        -1
    E36       55        -20
    E36       73        -470
    E36       82        -0.0192
    E36       86        -0.08329999
    E36       90        -0.33329999
    E36       94        -0.5
    E36       113       -45
    E36       139       -5.39999962
    AP36      43        -1
    AP36      141       -2
    AP36      147       -1
    AM36      43        1
    AM36      141       -6
    AM36      149       -1
    E41       44        1
    E41       50        -10
    E41       74        -210
    E41       114       -100
    E41       139       -37.5
    E42       45        1
    E42       51        -10
    E42       75        -235
    E42       83        1
    E42       115       -112.5
    E42       139       -25.5
    E43       46        1
    E43       52        -18.75
    E43       76        -368.75
    E43       83        -0.0192
    E43       87        1
    E43       116       -70
    E43       139       -12
    AP43      46        -1
    AP43      141       -20
    AP43      147       -1
    AM43      46        1
    AM43      141       -60
    AM43      149       -1
    E44       47        1
    E44       53        -25
    E44       77        -475
    E44       83        -0.0192
    E44       87        -0.08329999
    E44       91        1
    E44       117       -90
    E44       139       -8.09999943
    AP44      47        -1
    AP44      141       -10
    AP44      147       -1
    AM44      47        1
    AM44      141       -30
    AM44      149       -1
    E45       48        1
    E45       54        -20
    E45       78        -470
    E45       83        -0.0192
    E45       87        -0.08329999
    E45       91        -0.33329999
    E45       95        1
    E45       118       -90
    E45       139       -6.59999943
    AP45      48        -1
    AP45      141       -5
    AP45      147       -1
    AM45      48        1
    AM45      141       -15
    AM45      149       -1
    E46       49        1
    E46       55        -20
    E46       79        -470
    E46       83        -0.0192
    E46       87        -0.08329999
    E46       91        -0.33329999
    E46       95        -0.5
    E46       119       -45
    E46       139       -5.39999962
    AP46      49        -1
    AP46      141       -2
    AP46      147       -1
    AM46      49        1
    AM46      141       -6
    AM46      149       -1
    D11       50        1
    D11       56        1
    D21       50        1
    D21       62        1
    D31       50        1
    D31       68        1
    D41       50        1
    D41       74        1
    SP1       50        1
    SP1       153       -1
    D12       51        1
    D12       57        1
    D22       51        1
    D22       63        1
    D32       51        1
    D32       69        1
    D42       51        1
    D42       75        1
    SP2       51        1
    SP2       153       -1
    D13       52        1
    D13       58        1
    D23       52        1
    D23       64        1
    D33       52        1
    D33       70        1
    D43       52        1
    D43       76        1
    SP3       52        1
    SP3       153       -1
    D14       53        1
    D14       59        1
    D24       53        1
    D24       65        1
    D34       53        1
    D34       71        1
    D44       53        1
    D44       77        1
    SP4       53        1
    SP4       153       -1
    D15       54        1
    D15       60        1
    D25       54        1
    D25       66        1
    D35       54        1
    D35       72        1
    D45       54        1
    D45       78        1
    SP5       54        1
    SP5       153       -1
    D16       55        1
    D16       61        1
    D26       55        1
    D26       67        1
    D36       55        1
    D36       73        1
    D46       55        1
    D46       79        1
    SP6       55        1
    SP6       153       -1
    O11       56        -1
    O11       96        1
    I11       56        1
    I11       151       -1
    O12       57        -1
    O12       97        1
    I12       57        1
    I12       151       -1
    O13       58        -1
    O13       98        1
    I13       58        1
    I13       151       -1
    O14       59        -1
    O14       99        1
    O14       140       -22.2799988
    I14       59        1
    I14       151       -1
    O15       60        -1
    O15       100       1
    O15       140       -18.1499939
    I15       60        1
    I15       151       -1
    O16       61        -1
    O16       101       1
    O16       140       -14.8499994
    I16       61        1
    I16       151       -1
    O21       62        -1
    O21       102       1
    I21       62        1
    I21       151       -1
    O22       63        -1
    O22       103       1
    I22       63        1
    I22       151       -1
    O23       64        -1
    O23       104       1
    I23       64        1
    I23       151       -1
    O24       65        -1
    O24       105       1
    O24       140       -22.2799988
    I24       65        1
    I24       151       -1
    O25       66        -1
    O25       106       1
    O25       140       -18.1499939
    I25       66        1
    I25       151       -1
    O26       67        -1
    O26       107       1
    O26       140       -14.8499994
    I26       67        1
    I26       151       -1
    O31       68        -1
    O31       108       1
    I31       68        1
    I31       151       -1
    O32       69        -1
    O32       109       1
    I32       69        1
    I32       151       -1
    O33       70        -1
    O33       110       1
    I33       70        1
    I33       151       -1
    O34       71        -1
    O34       111       1
    O34       140       -22.2799988
    I34       71        1
    I34       151       -1
    O35       72        -1
    O35       112       1
    O35       140       -18.1499939
    I35       72        1
    I35       151       -1
    O36       73        -1
    O36       113       1
    O36       140       -14.8499994
    I36       73        1
    I36       151       -1
    O41       74        -1
    O41       114       1
    I41       74        1
    I41       151       -1
    O42       75        -1
    O42       115       1
    I42       75        1
    I42       151       -1
    O43       76        -1
    O43       116       1
    I43       76        1
    I43       151       -1
    O44       77        -1
    O44       117       1
    O44       140       -22.2799988
    I44       77        1
    I44       151       -1
    O45       78        -1
    O45       118       1
    O45       140       -18.1499939
    I45       78        1
    I45       151       -1
    O46       79        -1
    O46       119       1
    O46       140       -14.8499994
    I46       79        1
    I46       151       -1
    SUM11     138       1000
    SUM11     142       -1
    SUM12     139       1
    SUM12     142       1
    SUM13     140       1000
    SUM13     142       1
    SUM14     141       1
    SUM14     142       1
    SUM21     143       1000
    SUM21     144       -1
    SUM31     145       1000
    SUM31     146       -1
    SUM41     147       1
    SUM41     148       -1
    SUM51     149       1
    SUM51     150       -1
    SUM61     151       1000
    SUM61     152       -1
    SUM71     153       100
    SUM71     154       -1
RHS
    RHS1      2         132
    RHS1      3         446
    RHS1      4         2079
    RHS1      5         5346
    RHS1      6         5346
    RHS1      7         8019
    RHS1      8         352
    RHS1      9         1188
    RHS1      10        5544
    RHS1      11        14256
    RHS1      12        14256
    RHS1      13        21384
    RHS1      14        220
    RHS1      15        743
    RHS1      16        3465
    RHS1      17        8910
    RHS1      18        8910
    RHS1      19        13365
    RHS1      20        176
    RHS1      21        594
    RHS1      22        2772
    RHS1      23        7128
    RHS1      24        7128
    RHS1      25        10692
    RHS1      26        1
    RHS1      27        3
    RHS1      28        9
    RHS1      29        18
    RHS1      30        18
    RHS1      31        27
    RHS1      120       70.399994
    RHS1      121       237.599991
    RHS1      122       1108.7998
    RHS1      123       2851.19995
    RHS1      124       2851.19995
    RHS1      125       4276.79687
    RHS1      126       44
    RHS1      127       148.599991
    RHS1      128       693
    RHS1      129       1782
    RHS1      130       1782
    RHS1      131       2673
    RHS1      132       35.199997
    RHS1      133       118.799988
    RHS1      134       554.399902
    RHS1      135       1425.59985
    RHS1      136       1425.59985
    RHS1      137       2138.3999
    RHS1      142       -13.049999
BOUNDS
ENDATA
